--- Job turkey.gms Start 12/13/18 10:24:45 24.7.4 r58773 LEX-LEG x86 64bit/Linux
GAMS 24.7.4   Copyright (C) 1987-2016 GAMS Development. All rights reserved
Licensee: Remigijus Paulavicius, Single User License     S170731:0859AO-LNX
          Imperial College London, Dept. of Chemical Engineering    DC13449
          License for teaching and research at degree granting institutions
          remigijus.paulavicius@imperial.ac.uk                             
--- Starting compilation
--- turkey.gms(1171) 3 Mb
--- Starting execution: elapsed 0:00:00.008
--- turkey.gms(999) 4 Mb
--- Generating NLP model turkeyn
--- turkey.gms(1001) 7 Mb
---   288 rows  519 columns  4,646 non-zeroes
---   334 nl-code  55 nl-non-zeroes
--- turkey.gms(1001) 5 Mb
--- Executing CONVERT: elapsed 0:00:00.028

Convert 2.0      24.7.4 r58773 Released Sep 19, 2016 LEG x86 64bit/Linux      

--- Using Option File
Reading parameter(s) from "/home/renigijus/gams/opt-mod-lib/gamslib/turkey/convert.opt"
>>  ampl turkey-scalar.mod
Finished reading from "/home/renigijus/gams/opt-mod-lib/gamslib/turkey/convert.opt"
--- Writing Ampl      : turkey-scalar.mod

--- Restarting execution
--- turkey.gms(1001) 2 Mb
--- Reading solution for model turkeyn
--- turkey.gms(1048) 3 Mb
--- Generating LP model turkeyl
--- turkey.gms(1083) 4 Mb
---   415 rows  1,159 columns  6,527 non-zeroes
--- Executing CPLEX: elapsed 0:00:00.055

IBM ILOG CPLEX   24.7.4 r58773 Released Sep 19, 2016 LEG x86 64bit/Linux      
--- GAMS/Cplex licensed for continuous and discrete problems.
Cplex 12.6.3.0

*** Error Cannot open parameter file "/home/renigijus/gams/opt-mod-lib/gamslib/turkey/cplex.opt"
*** Error Error code = 2; No such file or directory
Reading data...
Starting Cplex...
Space for names approximately 0.04 Mb
Use option 'names no' to turn use of names off
Tried aggregator 1 time.
LP Presolve eliminated 31 rows and 59 columns.
Aggregator did 149 substitutions.
Reduced LP has 235 rows, 951 columns, and 4823 nonzeros.
Presolve time = 0.00 sec. (1.09 ticks)
Initializing dual steep norms . . .

Iteration log . . .
Iteration:     1   Dual objective     =         36194.067918
Iteration:    62   Dual objective     =         34857.952987
Iteration:   131   Dual objective     =         33207.081164
Iteration:   193   Dual objective     =         31211.284407
Iteration:   255   Dual objective     =         30428.550952
Iteration:   317   Dual objective     =         30039.395931
Iteration:   379   Dual objective     =         29630.692334
Iteration:   445   Dual objective     =         29151.606435
LP status(1): optimal
Cplex Time: 0.01sec (det. 9.50 ticks)

Optimal solution found.
Objective :       29078.210612

--- Restarting execution
--- turkey.gms(1083) 3 Mb
--- Reading solution for model turkeyl
--- turkey.gms(1171) 4 Mb
*** Status: Normal completion
--- Job turkey.gms Stop 12/13/18 10:24:45 elapsed 0:00:00.102
